* ENCODING=ISO-8859-1
NAME          CPLEX
ROWS
 N  obj1    
 G  c1      
 G  c2      
 G  c3      
 G  c4      
 G  c5      
 G  c6      
 G  c7      
 G  c8      
 G  c9      
 G  c10     
 G  c11     
 G  c12     
 G  c13     
 G  c14     
 G  c15     
 G  c16     
 G  c17     
 G  c18     
 G  c19     
 G  c20     
 G  c21     
 G  c22     
 G  c23     
 G  c24     
 G  c25     
 G  c26     
 G  c27     
 G  c28     
 G  c29     
 G  c30     
 G  c31     
 G  c32     
 G  c33     
 G  c34     
 G  c35     
 G  c36     
 G  c37     
 G  c38     
 G  c39     
 G  c40     
COLUMNS
    MARK0000  'MARKER'                 'INTORG'
    x1        obj1                            1
    x2        obj1                            1
    x2        c16                           881
    x3        obj1                            1
    x3        c7                            152
    x3        c13                           554
    x3        c39                           274
    x4        obj1                            1
    x4        c7                            643
    x4        c13                           923
    x4        c26                           276
    x4        c28                           934
    x4        c37                           859
    x5        obj1                            1
    x5        c5                            777
    x5        c6                            508
    x5        c17                           238
    x5        c20                           670
    x5        c27                           824
    x5        c32                           955
    x5        c33                           357
    x5        c38                           206
    x6        obj1                            1
    x6        c11                           141
    x6        c40                           330
    x7        obj1                            1
    x7        c24                           316
    x7        c25                           108
    x8        obj1                            1
    x8        c1                            249
    x8        c2                            586
    x8        c4                            288
    x8        c16                           618
    x8        c17                           812
    x8        c20                           699
    x8        c38                           464
    x9        obj1                            1
    x9        c17                           914
    x9        c19                           318
    x9        c23                           125
    x10       obj1                            1
    x10       c15                           446
    x10       c27                           797
    x10       c34                           858
    x11       obj1                            1
    x11       c3                            950
    x11       c4                            198
    x11       c37                           131
    x12       obj1                            1
    x12       c15                           830
    x12       c20                           339
    x12       c29                           817
    x13       obj1                            1
    x13       c4                            270
    x13       c26                           582
    x13       c36                           165
    x14       obj1                            1
    x14       c6                            413
    x14       c14                           442
    x14       c15                           948
    x14       c23                           892
    x14       c32                           165
    x14       c38                           962
    x15       obj1                            1
    x15       c13                           589
    x15       c16                           227
    x15       c21                           511
    x15       c33                           240
    x15       c37                           851
    x16       obj1                            1
    x16       c19                           880
    x16       c33                           208
    x16       c36                           989
    x17       obj1                            1
    x17       c2                            355
    x17       c23                           937
    x18       obj1                            1
    x18       c30                           410
    x18       c33                           707
    x18       c34                           817
    x18       c37                           314
    x19       obj1                            1
    x19       c8                            883
    x19       c11                           552
    x19       c28                           182
    x20       obj1                            1
    x20       c6                            186
    x20       c17                           399
    x20       c19                           586
    x20       c32                           459
    x20       c40                           814
    x21       obj1                            1
    x21       c5                            473
    x21       c13                           592
    x21       c16                           368
    x21       c28                           367
    x21       c33                           126
    x21       c40                           436
    x22       obj1                            1
    x22       c18                           464
    x22       c20                           398
    x22       c22                           811
    x22       c26                           942
    x22       c32                           938
    x22       c35                           339
    x23       obj1                            1
    x23       c32                           623
    x24       obj1                            1
    x24       c1                            946
    x24       c39                           512
    x25       obj1                            1
    x25       c5                            701
    x25       c7                            200
    x25       c13                           577
    x26       obj1                            1
    x26       c9                            223
    x26       c14                           707
    x26       c15                           277
    x26       c25                           506
    x26       c31                           416
    x27       obj1                            1
    x27       c16                           958
    x27       c22                           688
    x27       c24                           502
    x27       c28                           775
    x27       c35                           631
    x28       obj1                            1
    x28       c2                            375
    x28       c15                           444
    x28       c19                           983
    x29       obj1                            1
    x29       c12                           445
    x29       c18                           774
    x29       c27                           676
    x29       c28                           799
    x29       c30                           764
    x29       c40                           551
    x30       obj1                            1
    x30       c3                            814
    x30       c6                            525
    x30       c10                           768
    x30       c16                           333
    x30       c17                           879
    x30       c19                           297
    x31       obj1                            1
    x31       c17                           240
    x31       c23                           573
    x31       c38                           646
    x32       obj1                            1
    x32       c34                           615
    x32       c36                           325
    x32       c40                           143
    x33       obj1                            1
    x33       c2                            970
    x33       c3                            579
    x33       c13                           982
    x33       c18                           847
    x33       c24                           460
    x34       obj1                            1
    x34       c14                           892
    x34       c31                           448
    x34       c35                           514
    x35       obj1                            1
    x35       c7                            599
    x35       c10                           888
    x35       c33                           876
    x36       obj1                            1
    x36       c3                            591
    x36       c7                            890
    x36       c13                           700
    x36       c16                           968
    x36       c19                           292
    x36       c26                           621
    x36       c28                           405
    x36       c38                           120
    x37       obj1                            1
    x37       c15                           221
    x37       c18                           474
    x37       c29                           529
    x37       c36                           203
    x37       c37                           924
    x37       c40                           586
    x38       obj1                            1
    x38       c8                            268
    x38       c11                           368
    x38       c31                           585
    x38       c32                           770
    x38       c34                           957
    x39       obj1                            1
    x39       c4                            616
    x39       c20                           491
    x39       c22                           895
    x39       c29                           137
    x39       c31                           956
    x39       c36                           149
    x40       obj1                            1
    x40       c11                           182
    x40       c12                           167
    x40       c14                           765
    x40       c21                           169
    x40       c29                           423
    x41       obj1                            1
    x41       c5                            721
    x41       c9                            924
    x41       c17                           625
    x41       c30                           252
    x42       obj1                            1
    x42       c15                           444
    x42       c19                           715
    x42       c32                           812
    x42       c39                           456
    x43       obj1                            1
    x43       c30                           559
    x43       c34                           164
    x43       c39                           742
    x43       c40                           409
    x44       obj1                            1
    x44       c7                            988
    x45       obj1                            1
    x45       c1                            977
    x45       c6                            705
    x45       c17                           723
    x45       c20                           415
    x45       c34                           681
    x45       c40                           112
    x46       obj1                            1
    x46       c3                            891
    x46       c7                            440
    x46       c28                           607
    x46       c31                           544
    x47       obj1                            1
    x47       c23                           989
    x47       c38                           363
    x48       obj1                            1
    x48       c13                           704
    x48       c14                           568
    x48       c23                           745
    x48       c27                           131
    x48       c30                           937
    x48       c36                           353
    x48       c38                           556
    x49       obj1                            1
    x49       c12                           969
    x49       c38                           263
    x49       c39                           481
    x50       obj1                            1
    x50       c5                            488
    x50       c8                            430
    x50       c9                            729
    x50       c13                           265
    x50       c15                           137
    x50       c18                           339
    x50       c19                           540
    x50       c28                           954
    x51       obj1                            1
    x51       c9                            544
    x51       c12                           524
    x51       c30                           112
    x52       obj1                            1
    x52       c24                           378
    x52       c34                           807
    x53       obj1                            1
    x53       c24                           485
    x53       c28                           271
    x53       c32                           395
    x53       c39                           852
    x54       obj1                            1
    x54       c5                            276
    x54       c16                           740
    x54       c28                           282
    x54       c39                           178
    x55       obj1                            1
    x55       c10                           987
    x55       c13                           912
    x55       c35                           355
    x55       c40                           141
    x56       obj1                            1
    x56       c1                            864
    x56       c2                            742
    x56       c3                            849
    x56       c34                           372
    x56       c39                           149
    x57       obj1                            1
    x57       c13                           947
    x57       c14                           869
    x57       c19                           219
    x57       c20                           681
    x57       c23                           134
    x57       c35                           424
    x58       obj1                            1
    x58       c7                            193
    x58       c16                           445
    x58       c19                           271
    x58       c20                           708
    x59       obj1                            1
    x59       c8                            802
    x59       c9                            830
    x59       c17                           448
    x59       c22                           356
    x59       c24                           676
    x59       c32                           127
    x60       obj1                            1
    x60       c2                            685
    x60       c9                            124
    x60       c11                           670
    x60       c14                           498
    x60       c15                           896
    x60       c36                           317
    x60       c39                           692
    x61       obj1                            1
    x61       c22                           403
    x61       c23                           670
    x61       c30                           168
    x62       obj1                            1
    x62       c14                           955
    x62       c21                           776
    x62       c24                           132
    x62       c26                           921
    x62       c38                           199
    x63       obj1                            1
    x63       c3                            927
    x63       c14                           588
    x63       c25                           152
    x63       c34                           394
    x64       obj1                            1
    x64       c10                           984
    x64       c22                           906
    x64       c25                           866
    x64       c33                           797
    x64       c39                           236
    x65       obj1                            1
    x65       c5                            571
    x65       c6                            167
    x65       c26                           758
    x65       c30                           514
    x65       c31                           846
    x66       obj1                            1
    x66       c5                            351
    x66       c21                           858
    x66       c39                           791
    x67       obj1                            1
    x67       c10                           704
    x67       c15                           232
    x67       c20                           533
    x67       c21                           842
    x68       obj1                            1
    x68       c22                           645
    x68       c25                           419
    x68       c35                           407
    x68       c36                           835
    x68       c38                           622
    x69       obj1                            1
    x69       c12                           849
    x69       c19                           792
    x69       c25                           630
    x69       c33                           564
    x70       obj1                            1
    x70       c20                           151
    x70       c22                           680
    x70       c23                           149
    x70       c31                           990
    x70       c36                           760
    x71       obj1                            1
    x71       c5                            551
    x71       c21                           939
    x71       c31                           220
    x72       obj1                            1
    x72       c21                           526
    x73       obj1                            1
    x73       c11                           812
    x73       c23                           461
    x74       obj1                            1
    x74       c2                            990
    x75       obj1                            1
    x75       c5                            152
    x75       c12                           872
    x75       c22                           342
    x75       c26                           148
    x75       c36                           200
    x76       obj1                            1
    x76       c7                            478
    x76       c10                           884
    x76       c19                           464
    x76       c34                           245
    x77       obj1                            1
    x77       c4                            639
    x77       c14                           827
    x77       c20                           897
    x77       c26                           627
    x78       obj1                            1
    x78       c10                           457
    x78       c11                           229
    x78       c12                           354
    x78       c13                           522
    x78       c18                           244
    x78       c22                           795
    x78       c32                           777
    x79       obj1                            1
    x79       c6                            884
    x79       c20                           970
    x80       obj1                            1
    x80       c14                           398
    MARK0001  'MARKER'                 'INTEND'
RHS
    rhs       c1                           1518
    rhs       c2                           2352
    rhs       c3                           2801
    rhs       c4                           1006
    rhs       c5                           2531
    rhs       c6                           1694
    rhs       c7                           2292
    rhs       c8                           1192
    rhs       c9                           1687
    rhs       c10                          2836
    rhs       c11                          1477
    rhs       c12                          2090
    rhs       c13                          4134
    rhs       c14                          3755
    rhs       c15                          2438
    rhs       c16                          2769
    rhs       c17                          2639
    rhs       c18                          1571
    rhs       c19                          3179
    rhs       c20                          3476
    rhs       c21                          2311
    rhs       c22                          3261
    rhs       c23                          2838
    rhs       c24                          1475
    rhs       c25                          1341
    rhs       c26                          2438
    rhs       c27                          1214
    rhs       c28                          2788
    rhs       c29                           953
    rhs       c30                          1858
    rhs       c31                          2503
    rhs       c32                          3011
    rhs       c33                          1938
    rhs       c34                          2955
    rhs       c35                          1335
    rhs       c36                          2148
    rhs       c37                          1540
    rhs       c38                          2201
    rhs       c39                          2682
    rhs       c40                          1761
BOUNDS
 LI bnd       x1        0
 LI bnd       x2        0
 LI bnd       x3        0
 LI bnd       x4        0
 LI bnd       x5        0
 LI bnd       x6        0
 LI bnd       x7        0
 LI bnd       x8        0
 LI bnd       x9        0
 LI bnd       x10       0
 LI bnd       x11       0
 LI bnd       x12       0
 LI bnd       x13       0
 LI bnd       x14       0
 LI bnd       x15       0
 LI bnd       x16       0
 LI bnd       x17       0
 LI bnd       x18       0
 LI bnd       x19       0
 LI bnd       x20       0
 LI bnd       x21       0
 LI bnd       x22       0
 LI bnd       x23       0
 LI bnd       x24       0
 LI bnd       x25       0
 LI bnd       x26       0
 LI bnd       x27       0
 LI bnd       x28       0
 LI bnd       x29       0
 LI bnd       x30       0
 LI bnd       x31       0
 LI bnd       x32       0
 LI bnd       x33       0
 LI bnd       x34       0
 LI bnd       x35       0
 LI bnd       x36       0
 LI bnd       x37       0
 LI bnd       x38       0
 LI bnd       x39       0
 LI bnd       x40       0
 LI bnd       x41       0
 LI bnd       x42       0
 LI bnd       x43       0
 LI bnd       x44       0
 LI bnd       x45       0
 LI bnd       x46       0
 LI bnd       x47       0
 LI bnd       x48       0
 LI bnd       x49       0
 LI bnd       x50       0
 LI bnd       x51       0
 LI bnd       x52       0
 LI bnd       x53       0
 LI bnd       x54       0
 LI bnd       x55       0
 LI bnd       x56       0
 LI bnd       x57       0
 LI bnd       x58       0
 LI bnd       x59       0
 LI bnd       x60       0
 LI bnd       x61       0
 LI bnd       x62       0
 LI bnd       x63       0
 LI bnd       x64       0
 LI bnd       x65       0
 LI bnd       x66       0
 LI bnd       x67       0
 LI bnd       x68       0
 LI bnd       x69       0
 LI bnd       x70       0
 LI bnd       x71       0
 LI bnd       x72       0
 LI bnd       x73       0
 LI bnd       x74       0
 LI bnd       x75       0
 LI bnd       x76       0
 LI bnd       x77       0
 LI bnd       x78       0
 LI bnd       x79       0
 LI bnd       x80       0
ENDATA
